(set-logic QF_S)
(declare-fun var0 () String)
(declare-fun var1 () String)
(declare-fun var2 () String)
(declare-fun var3 () String)
(declare-fun var4 () String)
(declare-fun var5 () String)
(declare-fun var6 () String)
(declare-fun var7 () String)
(declare-fun var8 () String)
(declare-fun var9 () String)
(declare-fun var10 () String)
(declare-fun var11 () String)
(declare-fun var12 () String)
(declare-fun var13 () String)
(declare-fun var14 () String)
(declare-fun var15 () String)
(declare-fun var16 () String)
(declare-fun var17 () String)
(declare-fun var18 () String)
(declare-fun var19 () String)
(declare-fun var20 () String)
(declare-fun var21 () String)
(declare-fun var22 () String)
(declare-fun var23 () String)
(declare-fun var24 () String)
(declare-fun var25 () String)
(declare-fun var26 () String)
(declare-fun var27 () String)
(declare-fun var28 () String)
(declare-fun var29 () String)
(declare-fun var30 () String)
(declare-fun var31 () String)
(declare-fun var32 () String)
(declare-fun var33 () String)
(declare-fun var34 () String)
(declare-fun var35 () String)
(declare-fun var36 () String)
(declare-fun var37 () String)
(declare-fun var38 () String)
(declare-fun var39 () String)
(declare-fun var40 () String)
(declare-fun var41 () String)
(declare-fun var42 () String)
(declare-fun var43 () String)
(declare-fun var44 () String)
(declare-fun var45 () String)
(declare-fun var46 () String)
(declare-fun var47 () String)
(declare-fun var48 () String)
(declare-fun var49 () String)
(declare-fun var50 () String)
(declare-fun var51 () String)
(declare-fun var52 () String)
(declare-fun var53 () String)
(declare-fun var54 () String)
(declare-fun var55 () String)
(declare-fun var56 () String)
(declare-fun var57 () String)
(declare-fun var58 () String)
(declare-fun var59 () String)
(declare-fun var60 () String)
(assert (= var0 (Concat var1 var2)))
(assert (= var2 (Concat var3 var4)))
(assert (= var4 (Concat var5 var6)))
(assert (= var6 (Concat var7 var8)))
(assert (= var8 (Concat var9 var10)))
(assert (= var10 (Concat var11 var12)))
(assert (= var12 (Concat var13 var14)))
(assert (= var14 (Concat var15 var16)))
(assert (= var16 (Concat var17 var18)))
(assert (= var18 (Concat var19 var20)))
(assert (= var20 (Concat var21 var22)))
(assert (= var22 (Concat var23 var24)))
(assert (= var24 (Concat var25 var26)))
(assert (= var26 (Concat var27 var28)))
(assert (= var28 (Concat var29 var30)))
(assert (= var30 (Concat var31 var32)))
(assert (= var32 (Concat var33 var34)))
(assert (= var34 (Concat var35 var36)))
(assert (= var36 (Concat var37 var38)))
(assert (= var38 (Concat var39 var40)))
(assert (= var40 (Concat var41 var42)))
(assert (= var42 (Concat var43 var44)))
(assert (= var44 (Concat var45 var46)))
(assert (= var46 (Concat var47 var48)))
(assert (= var48 (Concat var49 var50)))
(assert (= var50 (Concat var51 var52)))
(assert (= var52 (Concat var53 var54)))
(assert (= var54 (Concat var55 var56)))
(assert (= var56 (Concat var57 var58)))
(assert (= var58 (Concat var59 var60)))
(assert (= var0 "solution"))
(assert (= "$" (CharAt var44 385)))
(assert (= ")" (CharAt var2 318)))
(assert (= "1" (CharAt var51 483)))
(assert (= "9" (CharAt var15 546)))
(assert (= "g" (CharAt var43 630)))
(assert (= "E" (CharAt var17 376)))
(assert (= "g" (CharAt var47 49)))
(assert (= "|" (CharAt var47 449)))
(assert (= "f" (CharAt var23 738)))
(assert (= "G" (CharAt var32 588)))
(assert (= "T" (CharAt var8 566)))
(assert (= "4" (CharAt var57 173)))
(assert (= "x" (CharAt var43 199)))
(assert (= "N" (CharAt var8 112)))
(assert (= "W" (CharAt var17 81)))
(assert (= "," (CharAt var17 116)))
(assert (= "c" (CharAt var29 474)))
(assert (= "F" (CharAt var10 962)))
(assert (= "C" (CharAt var40 996)))
(assert (= "N" (CharAt var19 317)))
(assert (= "_" (CharAt var14 299)))
(assert (= "g" (CharAt var18 47)))
(assert (= "$" (CharAt var9 746)))
(assert (= "x" (CharAt var48 740)))
(assert (= "g" (CharAt var26 927)))
(assert (= "*" (CharAt var20 250)))
(assert (= "8" (CharAt var34 164)))
(assert (= "T" (CharAt var18 90)))
(assert (= "j" (CharAt var15 407)))
(assert (= "g" (CharAt var30 717)))
(assert (= "S" (CharAt var10 768)))
(assert (= "x" (CharAt var19 161)))
(assert (= "A" (CharAt var15 159)))
(assert (= "X" (CharAt var22 887)))
(assert (= "D" (CharAt var53 431)))
(assert (= "\"" (CharAt var50 709)))
(assert (= "|" (CharAt var25 928)))
(assert (= "@" (CharAt var4 195)))
(assert (= "g" (CharAt var9 991)))
(assert (= "," (CharAt var44 818)))
(assert (= "6" (CharAt var3 147)))
(assert (= "a" (CharAt var9 481)))
(assert (= "L" (CharAt var43 514)))
(assert (= "Z" (CharAt var45 246)))
(assert (= "I" (CharAt var34 734)))
(assert (= "x" (CharAt var37 603)))
(assert (= "6" (CharAt var50 145)))
(assert (= "Y" (CharAt var28 47)))
(assert (= "O" (CharAt var59 860)))
(assert (= "W" (CharAt var40 870)))
(assert (= "f" (CharAt var27 300)))
(assert (= "I" (CharAt var9 760)))
(assert (= "t" (CharAt var28 742)))
(assert (= "%" (CharAt var50 188)))
(assert (= "," (CharAt var53 863)))
(assert (= "i" (CharAt var2 746)))
(assert (= "Z" (CharAt var1 711)))
(assert (= "<" (CharAt var31 323)))
(assert (= "J" (CharAt var44 360)))
(assert (= "q" (CharAt var19 604)))
(assert (= "L" (CharAt var25 417)))
(assert (= "K" (CharAt var16 707)))
(assert (= "?" (CharAt var50 942)))
(assert (= "4" (CharAt var58 87)))
(assert (= "B" (CharAt var56 349)))
(assert (= "x" (CharAt var49 763)))
(assert (= "." (CharAt var47 914)))
(assert (= ")" (CharAt var6 2)))
(assert (= "D" (CharAt var3 740)))
(assert (= "/" (CharAt var13 123)))
(assert (= "6" (CharAt var43 347)))
(assert (= "#" (CharAt var48 216)))
(assert (= "~" (CharAt var41 301)))
(assert (= "D" (CharAt var18 57)))
(assert (= "!" (CharAt var26 878)))
(assert (= "2" (CharAt var34 551)))
(assert (= "," (CharAt var3 556)))
(assert (= "x" (CharAt var12 480)))
(assert (= "6" (CharAt var3 435)))
(assert (= "W" (CharAt var36 62)))
(assert (= "&" (CharAt var23 322)))
(assert (= "D" (CharAt var36 938)))
(assert (= "A" (CharAt var38 0)))
(assert (= "]" (CharAt var55 747)))
(assert (= "^" (CharAt var46 949)))
(assert (= "[" (CharAt var58 730)))
(assert (= "1" (CharAt var29 503)))
(assert (= "j" (CharAt var26 34)))
(assert (= "a" (CharAt var54 884)))
(assert (= "M" (CharAt var0 860)))
(assert (= "M" (CharAt var12 527)))
(assert (= "p" (CharAt var46 409)))
(assert (= "R" (CharAt var45 485)))
(assert (= "B" (CharAt var29 459)))
(assert (= "U" (CharAt var0 544)))
(assert (= "}" (CharAt var16 570)))
(assert (= "r" (CharAt var53 952)))
(assert (= "." (CharAt var36 302)))
(assert (= "^" (CharAt var42 247)))
(assert (= "d" (CharAt var10 556)))
(assert (= "B" (CharAt var52 815)))
(assert (= "f" (CharAt var12 973)))
(assert (= "Z" (CharAt var15 518)))
(assert (= "|" (CharAt var54 811)))
(assert (= "2" (CharAt var34 761)))
(assert (= "D" (CharAt var33 783)))
(assert (= "Z" (CharAt var58 392)))
(assert (= "x" (CharAt var37 801)))
(assert (= "_" (CharAt var54 275)))
(assert (= "J" (CharAt var36 968)))
(assert (= "l" (CharAt var10 660)))
(assert (= "." (CharAt var36 517)))
(assert (= "[" (CharAt var59 139)))
(assert (= "," (CharAt var34 954)))
(assert (= "~" (CharAt var55 260)))
(assert (= "B" (CharAt var31 473)))
(assert (= ";" (CharAt var29 514)))
(assert (= "?" (CharAt var10 740)))
(assert (= "Q" (CharAt var49 155)))
(assert (= "x" (CharAt var60 680)))
(assert (= "N" (CharAt var0 401)))
(assert (= "9" (CharAt var34 249)))
(assert (= "D" (CharAt var48 767)))
(assert (= "e" (CharAt var23 259)))
(assert (= "}" (CharAt var39 726)))
(assert (= "&" (CharAt var3 423)))
(assert (= "D" (CharAt var35 601)))
(assert (= "M" (CharAt var34 853)))
(assert (= "C" (CharAt var50 199)))
(assert (= "4" (CharAt var12 160)))
(assert (= "." (CharAt var1 22)))
(assert (= "O" (CharAt var32 34)))
(assert (= "9" (CharAt var19 961)))
(assert (= "!" (CharAt var41 453)))
(assert (= "+" (CharAt var58 15)))
(assert (= "1" (CharAt var23 765)))
(assert (= "i" (CharAt var44 683)))
(assert (= "6" (CharAt var13 304)))
(assert (= "[" (CharAt var46 133)))
(assert (= "b" (CharAt var7 726)))
(assert (= "=" (CharAt var6 386)))
(assert (= ")" (CharAt var7 951)))
(assert (= "$" (CharAt var26 915)))
(assert (= "Z" (CharAt var12 337)))
(assert (= "3" (CharAt var8 646)))
(assert (= "j" (CharAt var15 581)))
(assert (= "/" (CharAt var6 156)))
(assert (= "s" (CharAt var19 410)))
(assert (= "o" (CharAt var33 269)))
(assert (= "x" (CharAt var9 25)))
(assert (= "w" (CharAt var26 859)))
(assert (= "N" (CharAt var17 449)))
(assert (= "?" (CharAt var0 378)))
(assert (= "}" (CharAt var4 670)))
(assert (= "u" (CharAt var34 513)))
(assert (= "K" (CharAt var46 154)))
(assert (= "{" (CharAt var54 432)))
(assert (= "g" (CharAt var30 214)))
(assert (= "g" (CharAt var11 544)))
(assert (= "_" (CharAt var59 103)))
(assert (= "\"" (CharAt var45 419)))
(assert (= "R" (CharAt var2 157)))
(assert (= "~" (CharAt var38 824)))
(assert (= "U" (CharAt var33 732)))
(assert (= "t" (CharAt var52 988)))
(assert (= "H" (CharAt var49 231)))
(assert (= "\\" (CharAt var29 661)))
(assert (= "|" (CharAt var38 632)))
(assert (= "<" (CharAt var30 762)))
(assert (= "n" (CharAt var47 266)))
(assert (= "4" (CharAt var37 952)))
(assert (= "|" (CharAt var29 91)))
(assert (= "F" (CharAt var23 456)))
(assert (= "f" (CharAt var25 315)))
(assert (= "7" (CharAt var35 317)))
(assert (= "N" (CharAt var37 449)))
(assert (= "3" (CharAt var24 191)))
(assert (= "P" (CharAt var11 343)))
(assert (= "P" (CharAt var37 647)))
(assert (= "B" (CharAt var54 780)))
(assert (= "g" (CharAt var57 900)))
(assert (= "z" (CharAt var15 492)))
(assert (= "C" (CharAt var58 555)))
(assert (= "9" (CharAt var28 434)))
(assert (= "m" (CharAt var42 411)))
(assert (= "~" (CharAt var31 665)))
(assert (= "'" (CharAt var7 603)))
(assert (= "V" (CharAt var22 574)))
(assert (= "r" (CharAt var24 682)))
(assert (= "k" (CharAt var24 997)))
(assert (= "%" (CharAt var20 879)))
(assert (= ">" (CharAt var44 93)))
(assert (= "j" (CharAt var59 971)))
(assert (= "^" (CharAt var24 630)))
(assert (= "~" (CharAt var32 265)))
(assert (= "f" (CharAt var50 297)))
(assert (= "m" (CharAt var24 179)))
(assert (= "c" (CharAt var59 342)))
(assert (= "V" (CharAt var20 113)))
(assert (= ":" (CharAt var3 506)))
(assert (= "X" (CharAt var9 50)))
(assert (= "+" (CharAt var19 657)))
(assert (= "=" (CharAt var2 313)))
(assert (= "k" (CharAt var7 633)))
(assert (= "7" (CharAt var39 682)))
(assert (= "t" (CharAt var44 839)))
(assert (= "X" (CharAt var55 481)))
(assert (= "[" (CharAt var5 76)))
(assert (= "-" (CharAt var30 176)))
(assert (= "o" (CharAt var47 297)))
(assert (= "." (CharAt var52 742)))
(assert (= "?" (CharAt var41 433)))
(assert (= "~" (CharAt var5 778)))
(assert (= "#" (CharAt var46 877)))
(assert (= "X" (CharAt var41 997)))
(assert (= "$" (CharAt var8 957)))
(assert (= "r" (CharAt var54 524)))
(assert (= ":" (CharAt var12 89)))
(assert (= "B" (CharAt var19 681)))
(assert (= "f" (CharAt var13 28)))
(assert (= "I" (CharAt var19 118)))
(assert (= "7" (CharAt var52 51)))
(assert (= "*" (CharAt var21 722)))
(assert (= "1" (CharAt var3 375)))
(assert (= "A" (CharAt var40 812)))
(assert (= ">" (CharAt var34 241)))
(assert (= "D" (CharAt var41 953)))
(assert (= "H" (CharAt var13 211)))
(assert (= "J" (CharAt var14 690)))
(assert (= "p" (CharAt var18 176)))
(assert (= "!" (CharAt var59 789)))
(assert (= "E" (CharAt var49 458)))
(assert (= "8" (CharAt var38 160)))
(assert (= "7" (CharAt var21 500)))
(assert (= "1" (CharAt var33 859)))
(assert (= "i" (CharAt var54 754)))
(assert (= "e" (CharAt var42 982)))
(assert (= "I" (CharAt var13 658)))
(assert (= "l" (CharAt var24 116)))
(assert (= "y" (CharAt var18 928)))
(assert (= "%" (CharAt var32 773)))
(assert (= "s" (CharAt var7 309)))
(assert (= "6" (CharAt var2 618)))
(assert (= "$" (CharAt var18 696)))
(assert (= "u" (CharAt var34 7)))
(assert (= "L" (CharAt var3 745)))
(assert (= "S" (CharAt var59 995)))
(assert (= "R" (CharAt var19 664)))
(assert (= "H" (CharAt var1 582)))
(assert (= "9" (CharAt var3 919)))
(assert (= "x" (CharAt var23 751)))
(assert (= "X" (CharAt var1 945)))
(assert (= "@" (CharAt var46 106)))
(assert (= "E" (CharAt var49 706)))
(assert (= ")" (CharAt var6 274)))
(assert (= "N" (CharAt var40 266)))
(assert (= "A" (CharAt var12 790)))
(assert (= "5" (CharAt var57 835)))
(assert (= ">" (CharAt var36 467)))
(assert (= "#" (CharAt var45 364)))
(assert (= "n" (CharAt var30 738)))
(assert (= "g" (CharAt var15 398)))
(assert (= "3" (CharAt var23 488)))
(assert (= "*" (CharAt var18 786)))
(assert (= "~" (CharAt var1 673)))
(assert (= "," (CharAt var38 470)))
(assert (= "." (CharAt var12 778)))
(assert (= "=" (CharAt var53 56)))
(assert (= "S" (CharAt var47 857)))
(assert (= "/" (CharAt var20 894)))
(assert (= "a" (CharAt var50 998)))
(assert (= "}" (CharAt var57 206)))
(assert (= "m" (CharAt var54 2)))
(assert (= "^" (CharAt var42 97)))
(assert (= "D" (CharAt var35 406)))
(assert (= "{" (CharAt var7 136)))
(assert (= "6" (CharAt var42 649)))
(assert (= "<" (CharAt var45 613)))
(assert (= "C" (CharAt var26 27)))
(assert (= "8" (CharAt var27 967)))
(assert (= "r" (CharAt var16 839)))
(assert (= "\\" (CharAt var47 997)))
(assert (= "|" (CharAt var7 120)))
(assert (= "j" (CharAt var0 493)))
(assert (= "+" (CharAt var52 883)))
(assert (= "~" (CharAt var23 319)))
(assert (= "|" (CharAt var58 683)))
(assert (= "y" (CharAt var52 767)))
(assert (= "P" (CharAt var35 751)))
(assert (= "*" (CharAt var39 788)))
(assert (= "k" (CharAt var27 337)))
(assert (= "?" (CharAt var27 37)))
(assert (= "E" (CharAt var43 273)))
(assert (= "w" (CharAt var51 602)))
(assert (= "D" (CharAt var16 83)))
(assert (= "S" (CharAt var28 712)))
(assert (= "s" (CharAt var27 799)))
(assert (= "I" (CharAt var59 493)))
(assert (= "L" (CharAt var18 508)))
(assert (= "G" (CharAt var21 466)))
(assert (= "E" (CharAt var30 498)))
(assert (= "b" (CharAt var52 502)))
(assert (= "~" (CharAt var0 931)))
(assert (= "z" (CharAt var56 131)))
(assert (= "k" (CharAt var48 303)))
(assert (= "{" (CharAt var22 332)))
(assert (= "`" (CharAt var3 239)))
(assert (= "p" (CharAt var1 278)))
(assert (= "0" (CharAt var43 297)))
(assert (= "T" (CharAt var1 694)))
(assert (= "E" (CharAt var57 58)))
(assert (= "&" (CharAt var30 534)))
(assert (= "Q" (CharAt var25 120)))
(assert (= ">" (CharAt var4 672)))
(assert (= "M" (CharAt var47 802)))
(assert (= "*" (CharAt var54 787)))
(assert (= "!" (CharAt var8 30)))
(assert (= "6" (CharAt var49 164)))
(assert (= "J" (CharAt var36 925)))
(assert (= "x" (CharAt var13 903)))
(assert (= "M" (CharAt var0 769)))
(assert (= "b" (CharAt var21 303)))
(assert (= "l" (CharAt var55 116)))
(assert (= "I" (CharAt var22 689)))
(assert (= "x" (CharAt var57 449)))
(assert (= ":" (CharAt var44 909)))
(assert (= "*" (CharAt var43 690)))
(assert (= "Q" (CharAt var60 443)))
(assert (= "h" (CharAt var13 243)))
(assert (= ">" (CharAt var60 43)))
(assert (= "Z" (CharAt var24 253)))
(assert (= "0" (CharAt var36 124)))
(assert (= "4" (CharAt var52 239)))
(assert (= "=" (CharAt var53 360)))
(assert (= "`" (CharAt var45 586)))
(assert (= "7" (CharAt var39 175)))
(assert (= "b" (CharAt var4 741)))
(assert (= "r" (CharAt var47 374)))
(assert (= "_" (CharAt var5 630)))
(assert (= "q" (CharAt var53 383)))
(assert (= "v" (CharAt var38 876)))
(assert (= "+" (CharAt var0 806)))
(assert (= "2" (CharAt var25 310)))
(assert (= "U" (CharAt var20 186)))
(assert (= "|" (CharAt var21 404)))
(assert (= "#" (CharAt var33 28)))
(assert (= "=" (CharAt var59 948)))
(assert (= "t" (CharAt var11 14)))
(assert (= "]" (CharAt var44 557)))
(assert (= "@" (CharAt var44 420)))
(assert (= "m" (CharAt var23 428)))
(assert (= "\\" (CharAt var8 90)))
(assert (= "(" (CharAt var40 688)))
(assert (= "T" (CharAt var32 254)))
(assert (= "_" (CharAt var48 651)))
(assert (= "f" (CharAt var58 721)))
(assert (= "s" (CharAt var18 684)))
(assert (= "(" (CharAt var27 426)))
(assert (= "}" (CharAt var17 721)))
(assert (= "T" (CharAt var12 328)))
(assert (= "O" (CharAt var3 474)))
(assert (= "p" (CharAt var43 291)))
(assert (= "2" (CharAt var1 138)))
(assert (= "~" (CharAt var60 417)))
(assert (= "I" (CharAt var47 944)))
(assert (= "m" (CharAt var48 903)))
(assert (= "V" (CharAt var20 870)))
(assert (= "W" (CharAt var33 847)))
(assert (= "c" (CharAt var48 301)))
(assert (= "(" (CharAt var53 723)))
(assert (= "D" (CharAt var43 991)))
(assert (= "C" (CharAt var26 287)))
(assert (= "1" (CharAt var31 736)))
(assert (= "i" (CharAt var35 362)))
(assert (= "7" (CharAt var22 909)))
(assert (= "=" (CharAt var52 645)))
(assert (= "!" (CharAt var18 346)))
(assert (= "W" (CharAt var15 936)))
(assert (= "v" (CharAt var20 359)))
(assert (= "m" (CharAt var12 457)))
(assert (= "z" (CharAt var53 710)))
(assert (= "." (CharAt var60 558)))
(assert (= "}" (CharAt var20 182)))
(assert (= "u" (CharAt var48 696)))
(assert (= "%" (CharAt var35 240)))
(assert (= "j" (CharAt var8 317)))
(assert (= "|" (CharAt var20 314)))
(assert (= "&" (CharAt var14 897)))
(assert (= "`" (CharAt var1 185)))
(assert (= "L" (CharAt var43 833)))
(assert (= "A" (CharAt var42 765)))
(assert (= "|" (CharAt var47 767)))
(assert (= "<" (CharAt var16 469)))
(assert (= "s" (CharAt var51 447)))
(assert (= "Q" (CharAt var5 180)))
(assert (= ">" (CharAt var40 479)))
(assert (= "P" (CharAt var25 593)))
(assert (= "'" (CharAt var24 88)))
(assert (= "F" (CharAt var37 623)))
(assert (= "h" (CharAt var19 69)))
(assert (= "g" (CharAt var1 240)))
(assert (= "5" (CharAt var6 927)))
(assert (= "t" (CharAt var29 5)))
(assert (= "X" (CharAt var47 186)))
(assert (= "w" (CharAt var18 920)))
(assert (= "}" (CharAt var42 300)))
(assert (= "a" (CharAt var26 956)))
(assert (= "O" (CharAt var55 33)))
(assert (= "/" (CharAt var47 430)))
(assert (= "H" (CharAt var20 353)))
(assert (= "\\" (CharAt var31 188)))
(assert (= "Q" (CharAt var45 684)))
(assert (= "Z" (CharAt var48 595)))
(assert (= "Z" (CharAt var58 246)))
(assert (= "S" (CharAt var10 336)))
(assert (= "u" (CharAt var11 675)))
(assert (= "n" (CharAt var52 319)))
(assert (= "_" (CharAt var7 23)))
(assert (= "&" (CharAt var9 710)))
(assert (= "d" (CharAt var51 549)))
(assert (= "B" (CharAt var52 207)))
(assert (= ">" (CharAt var20 206)))
(assert (= "B" (CharAt var17 603)))
(assert (= "R" (CharAt var23 652)))
(assert (= "g" (CharAt var8 223)))
(assert (= "`" (CharAt var45 920)))
(assert (= "r" (CharAt var59 367)))
(assert (= "L" (CharAt var37 850)))
(assert (= "g" (CharAt var56 994)))
(assert (= "," (CharAt var51 370)))
(assert (= "!" (CharAt var3 138)))
(assert (= "{" (CharAt var50 487)))
(assert (= "F" (CharAt var35 605)))
(assert (= "=" (CharAt var59 577)))
(assert (= "E" (CharAt var55 797)))
(assert (= "." (CharAt var15 879)))
(assert (= "5" (CharAt var37 162)))
(assert (= "l" (CharAt var1 854)))
(assert (= "v" (CharAt var40 668)))
(assert (= "(" (CharAt var26 611)))
(assert (= "G" (CharAt var38 706)))
(assert (= ">" (CharAt var16 871)))
(assert (= "X" (CharAt var57 936)))
(assert (= "z" (CharAt var10 324)))
(assert (= "r" (CharAt var11 894)))
(assert (= "K" (CharAt var19 670)))
(assert (= "T" (CharAt var18 863)))
(assert (= "c" (CharAt var22 39)))
(assert (= "o" (CharAt var35 564)))
(assert (= "?" (CharAt var1 302)))
(assert (= "H" (CharAt var45 183)))
(assert (= "8" (CharAt var55 80)))
(assert (= "V" (CharAt var7 991)))
(assert (= "Q" (CharAt var58 199)))
(assert (= "y" (CharAt var51 362)))
(assert (= "l" (CharAt var24 380)))
(assert (= "`" (CharAt var41 493)))
(assert (= "7" (CharAt var54 234)))
(assert (= "0" (CharAt var7 451)))
(assert (= "x" (CharAt var12 324)))
(assert (= "b" (CharAt var48 372)))
(assert (= "W" (CharAt var12 175)))
(assert (= "J" (CharAt var58 722)))
(assert (= "9" (CharAt var34 665)))
(assert (= "O" (CharAt var53 694)))
(assert (= "b" (CharAt var59 611)))
(assert (= "," (CharAt var47 874)))
(assert (= "<" (CharAt var47 261)))
(assert (= "d" (CharAt var42 515)))
(assert (= "w" (CharAt var42 679)))
(assert (= "N" (CharAt var34 247)))
(assert (= "3" (CharAt var4 100)))
(assert (= "V" (CharAt var11 332)))
(assert (= "O" (CharAt var17 214)))
(assert (= "s" (CharAt var16 891)))
(assert (= "p" (CharAt var56 153)))
(assert (= "-" (CharAt var18 296)))
(assert (= "L" (CharAt var11 464)))
(assert (= "H" (CharAt var46 94)))
(assert (= "B" (CharAt var60 585)))
(assert (= "m" (CharAt var31 977)))
(assert (= "d" (CharAt var45 858)))
(assert (= "i" (CharAt var39 703)))
(assert (= "%" (CharAt var55 459)))
(assert (= "." (CharAt var17 361)))
(assert (= "y" (CharAt var16 518)))
(assert (= "t" (CharAt var20 911)))
(assert (= "i" (CharAt var36 945)))
(assert (= "e" (CharAt var19 176)))
(assert (= "\\" (CharAt var6 828)))
(assert (= "`" (CharAt var6 756)))
(assert (= "x" (CharAt var57 110)))
(assert (= "J" (CharAt var43 587)))
(assert (= "9" (CharAt var27 1)))
(assert (= "b" (CharAt var46 97)))
(assert (= "=" (CharAt var55 284)))
(assert (= "8" (CharAt var19 402)))
(assert (= "j" (CharAt var49 14)))
(assert (= "R" (CharAt var8 276)))
(assert (= "[" (CharAt var30 934)))
(assert (= "]" (CharAt var25 465)))
(assert (= "J" (CharAt var3 26)))
(assert (= "l" (CharAt var16 403)))
(assert (= "_" (CharAt var5 663)))
(assert (= ">" (CharAt var11 426)))
(assert (= "S" (CharAt var1 833)))
(assert (= "'" (CharAt var59 940)))
(assert (= "D" (CharAt var22 174)))
(assert (= "t" (CharAt var49 694)))
(assert (= "=" (CharAt var50 622)))
(assert (= "\"" (CharAt var8 379)))
(assert (= "]" (CharAt var35 432)))
(assert (= "/" (CharAt var30 872)))
(assert (= "?" (CharAt var21 97)))
(assert (= "D" (CharAt var35 391)))
(assert (= "s" (CharAt var47 132)))
(assert (= "t" (CharAt var22 697)))
(assert (= "-" (CharAt var37 79)))
(assert (= "G" (CharAt var18 725)))
(assert (= "v" (CharAt var40 555)))
(assert (= "<" (CharAt var41 547)))
(assert (= "`" (CharAt var6 164)))
(assert (= "Q" (CharAt var10 303)))
(assert (= "C" (CharAt var39 683)))
(assert (= "S" (CharAt var54 300)))
(assert (= "=" (CharAt var11 600)))
(assert (= "v" (CharAt var14 577)))
(assert (= "Z" (CharAt var47 106)))
(assert (= "V" (CharAt var4 191)))
(assert (= "^" (CharAt var15 183)))
(assert (= "r" (CharAt var50 560)))
(assert (= "<" (CharAt var1 948)))
(assert (= "]" (CharAt var57 340)))
(assert (= "K" (CharAt var16 742)))
(assert (= "Q" (CharAt var36 381)))
(assert (= "k" (CharAt var45 977)))
(assert (= "u" (CharAt var0 993)))
(assert (= "h" (CharAt var12 408)))
(assert (= "^" (CharAt var45 498)))
(assert (= "'" (CharAt var10 922)))
(assert (= "e" (CharAt var18 843)))
(assert (= "t" (CharAt var57 952)))
(assert (= "e" (CharAt var26 511)))
(assert (= "M" (CharAt var2 819)))
(assert (= "[" (CharAt var5 723)))
(assert (= "=" (CharAt var14 204)))
(assert (= "Z" (CharAt var45 723)))
(assert (= "C" (CharAt var52 798)))
(assert (= "v" (CharAt var7 384)))
(assert (= "%" (CharAt var7 665)))
(assert (= "]" (CharAt var55 949)))
(assert (= "<" (CharAt var40 717)))
(assert (= "N" (CharAt var5 94)))
(assert (= "q" (CharAt var53 102)))
(assert (= "s" (CharAt var4 285)))
(assert (= "l" (CharAt var33 760)))
(assert (= "A" (CharAt var14 602)))
(assert (= "$" (CharAt var34 211)))
(assert (= "#" (CharAt var15 880)))
(assert (= "," (CharAt var32 703)))
(assert (= "i" (CharAt var50 308)))
(assert (= "M" (CharAt var6 523)))
(assert (= "x" (CharAt var12 373)))
(assert (= "l" (CharAt var15 326)))
(assert (= "k" (CharAt var39 593)))
(assert (= "[" (CharAt var6 747)))
(assert (= "N" (CharAt var18 631)))
(assert (= "u" (CharAt var2 613)))
(assert (= "z" (CharAt var59 109)))
(assert (= "s" (CharAt var42 371)))
(assert (= "`" (CharAt var40 139)))
(assert (= "+" (CharAt var22 637)))
(assert (= "Y" (CharAt var1 865)))
(assert (= "8" (CharAt var18 235)))
(assert (= "o" (CharAt var5 473)))
(assert (= "o" (CharAt var26 834)))
(assert (= "2" (CharAt var34 649)))
(assert (= "@" (CharAt var14 136)))
(assert (= "_" (CharAt var53 925)))
(assert (= "f" (CharAt var38 775)))
(assert (= "#" (CharAt var53 891)))
(assert (= "u" (CharAt var2 617)))
(assert (= "," (CharAt var9 173)))
(assert (= "3" (CharAt var29 720)))
(assert (= "\\" (CharAt var37 634)))
(assert (= "b" (CharAt var39 142)))
(assert (= "9" (CharAt var4 290)))
(assert (= "+" (CharAt var50 127)))
(assert (= "T" (CharAt var45 411)))
(assert (= "i" (CharAt var25 831)))
(assert (= "-" (CharAt var1 892)))
(assert (= "s" (CharAt var10 87)))
(assert (= "9" (CharAt var60 882)))
(assert (= "Z" (CharAt var59 363)))
(assert (= "," (CharAt var1 435)))
(assert (= "y" (CharAt var35 427)))
(assert (= "v" (CharAt var22 55)))
(assert (= "W" (CharAt var37 930)))
(assert (= "." (CharAt var28 347)))
(assert (= "\"" (CharAt var47 172)))
(assert (= "R" (CharAt var18 101)))
(assert (= "b" (CharAt var6 529)))
(assert (= "u" (CharAt var53 358)))
(assert (= "h" (CharAt var28 104)))
(assert (= "*" (CharAt var58 480)))
(assert (= "Z" (CharAt var15 746)))
(assert (= "R" (CharAt var28 207)))
(assert (= "'" (CharAt var4 346)))
(assert (= "H" (CharAt var54 708)))
(assert (= "7" (CharAt var7 898)))
(assert (= "_" (CharAt var47 639)))
(assert (= "H" (CharAt var24 180)))
(assert (= "\"" (CharAt var17 384)))
(assert (= "`" (CharAt var60 870)))
(assert (= "G" (CharAt var31 325)))
(assert (= "!" (CharAt var35 1000)))
(assert (= "=" (CharAt var16 102)))
(assert (= "u" (CharAt var24 692)))
(assert (= "P" (CharAt var10 156)))
(assert (= "B" (CharAt var16 103)))
(assert (= "R" (CharAt var46 143)))
(assert (= "." (CharAt var41 862)))
(assert (= "6" (CharAt var43 315)))
(assert (= "{" (CharAt var29 233)))
(assert (= "?" (CharAt var50 514)))
(assert (= "V" (CharAt var39 730)))
(assert (= "\\" (CharAt var1 687)))
(assert (= "A" (CharAt var21 261)))
(assert (= "^" (CharAt var20 305)))
(assert (= "?" (CharAt var31 966)))
(assert (= "y" (CharAt var55 957)))
(assert (= "*" (CharAt var1 152)))
(assert (= "J" (CharAt var50 592)))
(assert (= "Z" (CharAt var46 440)))
(assert (= "B" (CharAt var28 835)))
(assert (= "^" (CharAt var17 126)))
(assert (= "J" (CharAt var28 918)))
(assert (= "." (CharAt var8 17)))
(assert (= "." (CharAt var31 275)))
(assert (= "x" (CharAt var59 277)))
(assert (= "+" (CharAt var59 388)))
(assert (= "_" (CharAt var15 284)))
(assert (= "i" (CharAt var55 719)))
(assert (= "z" (CharAt var47 484)))
(assert (= "T" (CharAt var36 572)))
(assert (= "d" (CharAt var33 399)))
(assert (= "K" (CharAt var6 462)))
(assert (= "H" (CharAt var25 596)))
(assert (= "{" (CharAt var56 346)))
(assert (= "w" (CharAt var22 778)))
(assert (= "'" (CharAt var49 941)))
(assert (= "\"" (CharAt var4 36)))
(assert (= "m" (CharAt var52 726)))
(assert (= "'" (CharAt var4 252)))
(assert (= "V" (CharAt var55 965)))
(assert (= "%" (CharAt var7 300)))
(assert (= "." (CharAt var15 482)))
(assert (= "e" (CharAt var13 311)))
(assert (= "+" (CharAt var29 866)))
(assert (= ";" (CharAt var22 218)))
(assert (= "m" (CharAt var9 36)))
(assert (= "f" (CharAt var55 184)))
(assert (= "u" (CharAt var52 715)))
(assert (= "\\" (CharAt var25 581)))
(assert (= "+" (CharAt var56 290)))
(assert (= "u" (CharAt var28 478)))
(assert (= "+" (CharAt var11 245)))
(assert (= "[" (CharAt var21 51)))
(assert (= "z" (CharAt var19 361)))
(assert (= "7" (CharAt var48 288)))
(assert (= "O" (CharAt var32 870)))
(assert (= "y" (CharAt var51 935)))
(assert (= "A" (CharAt var3 510)))
(assert (= "J" (CharAt var52 67)))
(assert (= "T" (CharAt var9 851)))
(assert (= "]" (CharAt var9 650)))
(assert (= "q" (CharAt var15 927)))
(assert (= "H" (CharAt var4 293)))
(assert (= "m" (CharAt var53 819)))
(assert (= "l" (CharAt var36 258)))
(assert (= "0" (CharAt var0 98)))
(assert (= "s" (CharAt var37 10)))
(assert (= "8" (CharAt var15 160)))
(assert (= "S" (CharAt var22 788)))
(assert (= "." (CharAt var43 170)))
(assert (= "k" (CharAt var28 709)))
(assert (= "j" (CharAt var54 17)))
(assert (= "<" (CharAt var0 17)))
(assert (= "P" (CharAt var59 293)))
(assert (= "V" (CharAt var47 247)))
(assert (= "{" (CharAt var44 77)))
(assert (= "\\" (CharAt var3 934)))
(assert (= "o" (CharAt var1 826)))
(assert (= "p" (CharAt var5 815)))
(assert (= "G" (CharAt var46 29)))
(assert (= ";" (CharAt var8 202)))
(assert (= "J" (CharAt var5 638)))
(assert (= "L" (CharAt var19 924)))
(assert (= "a" (CharAt var2 984)))
(assert (= "a" (CharAt var34 96)))
(assert (= "9" (CharAt var5 769)))
(assert (= "O" (CharAt var38 173)))
(assert (= "-" (CharAt var13 277)))
(assert (= "J" (CharAt var46 626)))
(assert (= "H" (CharAt var12 696)))
(assert (= ")" (CharAt var60 16)))
(assert (= "L" (CharAt var22 898)))
(assert (= ">" (CharAt var60 902)))
(assert (= "]" (CharAt var37 323)))
(assert (= "}" (CharAt var17 335)))
(assert (= "e" (CharAt var59 554)))
(assert (= "+" (CharAt var17 248)))
(assert (= "\"" (CharAt var34 767)))
(assert (= "M" (CharAt var60 580)))
(assert (= "7" (CharAt var16 422)))
(assert (= "R" (CharAt var43 403)))
(assert (= "1" (CharAt var0 399)))
(assert (= "v" (CharAt var25 961)))
(assert (= "&" (CharAt var58 650)))
(assert (= "3" (CharAt var34 886)))
(assert (= "K" (CharAt var56 39)))
(assert (= "-" (CharAt var9 293)))
(assert (= "$" (CharAt var15 933)))
(assert (= "'" (CharAt var30 241)))
(assert (= "<" (CharAt var21 544)))
(assert (= "l" (CharAt var45 414)))
(assert (= "J" (CharAt var11 722)))
(assert (= "G" (CharAt var44 200)))
(assert (= "o" (CharAt var55 878)))
(assert (= "r" (CharAt var43 767)))
(assert (= "F" (CharAt var47 920)))
(assert (= "C" (CharAt var28 453)))
(assert (= "}" (CharAt var11 24)))
(assert (= "T" (CharAt var8 245)))
(assert (= "1" (CharAt var37 578)))
(assert (= "&" (CharAt var50 335)))
(assert (= "Z" (CharAt var58 278)))
(assert (= "B" (CharAt var52 362)))
(assert (= "$" (CharAt var31 104)))
(assert (= "+" (CharAt var18 854)))
(assert (= "G" (CharAt var25 239)))
(assert (= "3" (CharAt var8 933)))
(assert (= "4" (CharAt var18 662)))
(assert (= "e" (CharAt var47 419)))
(assert (= "g" (CharAt var35 651)))
(assert (= "k" (CharAt var11 831)))
(assert (= "2" (CharAt var32 115)))
(assert (= "y" (CharAt var12 329)))
(assert (= "M" (CharAt var19 910)))
(assert (= "7" (CharAt var27 112)))
(assert (= "," (CharAt var47 710)))
(assert (= "w" (CharAt var9 551)))
(assert (= "F" (CharAt var2 710)))
(assert (= "w" (CharAt var22 500)))
(assert (= "U" (CharAt var38 68)))
(assert (= "I" (CharAt var41 779)))
(assert (= "z" (CharAt var21 432)))
(assert (= "t" (CharAt var11 257)))
(assert (= "0" (CharAt var35 415)))
(assert (= "u" (CharAt var9 747)))
(assert (= "\\" (CharAt var51 680)))
(check-sat)